53578 -1 25504 181063 54482 0.98
53350 -1 24749 176464 55244 0.96
53124 -1 32857 229417 55582 1
53310 -1 26977 188334 55980 0.94
53242 -1 35003 244839 54774 0.96
53398 -1 24651 173185 56502 1
53398 -1 26431 187508 55472 0.98
53374 -1 30572 213272 55802 0.94
53548 -1 32643 235920 54844 0.94
53504 -1 23566 170901 56092 1
